files/upTests/mms/0001.eprime
language ESSENCE' 1.0

find mms_SetExplicit:
        matrix indexed by [int(1..3), int(4..6), int(1..4)] of int(1..9)
such that
    exists v__0 : int(1..4) . mms_SetExplicit[1, 4, v__0] = 1,
    forAll v__0 : int(1..3)
        . (forAll v__1 : int(4..6)
               . (forAll v__2 : int(1..3)
                      . mms_SetExplicit[v__0, v__1, v__2] < mms_SetExplicit[v__0, v__1, v__2 + 1]))
