files/upTests/mms/0001.eprime.solution
language ESSENCE' 1.0
$ minion Nodes: 36
$ minion TotalTime: 0.00096
$ Savile Row TotalTime: 0.303
letting mms_Explicit be [[[1, 2, 3, 4], 
[1, 2, 3, 4], 
[1, 2, 3, 4]], 
[[1, 2, 3, 4], 
[1, 2, 3, 4], 
[1, 2, 3, 4]], 
[[1, 2, 3, 4], 
[1, 2, 3, 4], 
[1, 2, 3, 4]]]
